NAME : MPPT
COMMENT : The capital cities of Europe
TYPE : TSP
DIMENSION : 6
EDGE_WEIGHT_TYPE : EUC_2D
NODE_COORD_SECTION
1 41842.830 12491.455 TOP
2 40369.427 -3691.406 BB
3 46895.737 7437.744 Bern
4 42101.074 11946.44 A
5 42101.074 12946.44 B
6 41575.344 12187.40 C
EOF